NAME : portcgen-15-1
COMMENT : portcgen N=15, seed=1
TYPE : TSP
DIMENSION : 15
EDGE_WEIGHT_TYPE : EUC_2D
NODE_COORD_SECTION
1 -173935 -354897
2 -126069 -147829
3 -56477 46990
4 -19419 -111762
5 -417408 124058
6 -170334 -272041
7 -356353 100521
8 231865 283824
9 290908 -147890
10 -152861 -157391
11 47038 123231
12 -146567 -43968
13 30237 -9261
14 -303239 462397
15 -95274 87517
